\ LP format - for model browsing. Use MPS format to capture full model detail.
Maximize
  0.095 A + 0.08 B + 0.09 C + 0.09 D + 0.09 E
Subject To
 R0: A + B + C + D + E = 100000
 R1: B + E >= 50000
 R2: A + D + E <= 45000
 R3: A + B + D >= 30000
 R4: 0.057 A + 0.048 B - 0.036 C + 0.054 D - 0.036 E >= 0
Bounds
End
